Version identifier: 22.1.1.0 | 2022-11-28 | 9160aff4d
CPXPARAM_ClockType                               1
CPXPARAM_Read_DataCheck                          1
CPXPARAM_Threads                                 1
CPXPARAM_TimeLimit                               7200
CPXPARAM_MIP_Tolerances_AbsMIPGap                0
CPXPARAM_MIP_Tolerances_MIPGap                   0
CPXPARAM_MIP_Tolerances_Integrality              0
Tried aggregator 2 times.
MIP Presolve eliminated 55321 rows and 1 columns.
MIP Presolve modified 24790 coefficients.
Aggregator did 1003 substitutions.
Reduced MIP has 28916 rows, 5014 columns, and 145343 nonzeros.
Reduced MIP has 5014 binaries, 0 generals, 0 SOSs, and 0 indicators.
Presolve time = 0.74 sec. (453.13 ticks)
Probing time = 0.02 sec. (8.24 ticks)
Tried aggregator 1 time.
Detecting symmetries...
MIP Presolve eliminated 108 rows and 1 columns.
Reduced MIP has 28808 rows, 5013 columns, and 143506 nonzeros.
Reduced MIP has 5013 binaries, 0 generals, 0 SOSs, and 0 indicators.
Presolve time = 0.37 sec. (230.57 ticks)
Probing time = 0.02 sec. (8.24 ticks)
Clique table members: 29260.
MIP emphasis: balance optimality and feasibility.
MIP search method: dynamic search.
Parallel mode: none, using 1 thread.
Root relaxation solution time = 1.53 sec. (546.36 ticks)

        Nodes                                         Cuts/
   Node  Left     Objective  IInf  Best Integer    Best Bound    ItCnt     Gap

      0     0     1003.0000  1530                   1003.0000     2269         
      0     0      153.2452  1638                  Cuts: 3706   198383         
      0     0      118.0000  1530                   Cuts: 831   243029         
      0     0      118.0000  1642                   Cuts: 281   270695         
      0     0      118.0000  1459                    Cuts: 13   296129         
      0     0      118.0000  1584                   Cuts: 269   330201         
Detecting symmetries...
Heuristic still looking.
*     0+    0                          108.0000      118.0000             9.26%
Detecting symmetries...
      0     2      118.0000   801      108.0000      118.0000   330201    9.26%
Elapsed time = 1160.17 sec. (490561.24 ticks, tree = 0.01 MB, solutions = 1)
      1     3      118.0000  1489      108.0000      118.0000   375367    9.26%
      2     4      118.0000  1393      108.0000      118.0000   414890    9.26%
      3     5      118.0000  1513      108.0000      118.0000   441489    9.26%
      5     7      118.0000  1308      108.0000      118.0000   442782    9.26%
      6     8      118.0000  1237      108.0000      118.0000   444167    9.26%
      7     9      118.0000  1240      108.0000      118.0000   444572    9.26%
      8    10      118.0000  1238      108.0000      118.0000   444574    9.26%
      9    11      118.0000  1219      108.0000      118.0000   445058    9.26%
     10    12      118.0000  1221      108.0000      118.0000   445451    9.26%
     13    15      118.0000  1474      108.0000      118.0000   468696    9.26%
Elapsed time = 1601.47 sec. (651120.48 ticks, tree = 0.21 MB, solutions = 1)
     17    19      118.0000  1180      108.0000      118.0000   469722    9.26%
     22    24      118.0000  1162      108.0000      118.0000   471300    9.26%
     26    28      118.0000  1105      108.0000      118.0000   473029    9.26%
     31    33      118.0000   959      108.0000      118.0000   474873    9.26%
     35    37      118.0000   978      108.0000      118.0000   476526    9.26%
     40    42      118.0000   987      108.0000      118.0000   477740    9.26%
     44    46      118.0000  1039      108.0000      118.0000   484864    9.26%
     47    49      118.0000  1114      108.0000      118.0000   492332    9.26%
     49    51      118.0000   997      108.0000      118.0000   495710    9.26%
     50    52      118.0000   904      108.0000      118.0000   498434    9.26%
Elapsed time = 1654.02 sec. (674243.26 ticks, tree = 0.72 MB, solutions = 1)
     53    55      118.0000   901      108.0000      118.0000   503626    9.26%
     57    57      118.0000   783      108.0000      118.0000   508134    9.26%
     64    58      118.0000  1124      108.0000      118.0000   509832    9.26%
     69    63      118.0000  1087      108.0000      118.0000   511867    9.26%
     72    66      118.0000  1235      108.0000      118.0000   524597    9.26%
     74    68      118.0000  1355      108.0000      118.0000   539995    9.26%
     80    74      118.0000  1037      108.0000      118.0000   541446    9.26%
     81    75      118.0000  1219      108.0000      118.0000   554239    9.26%
     88    82      118.0000   883      108.0000      118.0000   556349    9.26%
     94    88      118.0000   884      108.0000      118.0000   557752    9.26%
Elapsed time = 1855.74 sec. (745258.37 ticks, tree = 0.94 MB, solutions = 1)
     98    92      118.0000   659      108.0000      118.0000   560802    9.26%
    104    94    infeasible            108.0000      118.0000   563300    9.26%
    112    98    infeasible            108.0000      118.0000   565876    9.26%
    118   104      118.0000   607      108.0000      118.0000   568450    9.26%
    129   107      118.0000   517      108.0000      118.0000   571177    9.26%
    138   106      118.0000   548      108.0000      118.0000   574967    9.26%
    146   110      115.0000   263      108.0000      118.0000   579481    9.26%
    158   110    infeasible            108.0000      118.0000   583113    9.26%
    168   106    infeasible            108.0000      118.0000   587847    9.26%
    179   107      118.0000   675      108.0000      118.0000   590660    9.26%
Elapsed time = 1876.12 sec. (756286.50 ticks, tree = 1.09 MB, solutions = 1)
    189   113    infeasible            108.0000      118.0000   592424    9.26%
    197   115      118.0000   604      108.0000      118.0000   595523    9.26%
    203   115    infeasible            108.0000      118.0000   599284    9.26%
    212   114      118.0000   537      108.0000      118.0000   602737    9.26%
    223   115    infeasible            108.0000      118.0000   607146    9.26%
    233   115    infeasible            108.0000      118.0000   610390    9.26%
    238   116      117.9512   787      108.0000      118.0000   615224    9.26%
    243   115      118.0000   645      108.0000      118.0000   617935    9.26%
    250   116      115.9560   790      108.0000      118.0000   621290    9.26%
    256   122      116.5000   290      108.0000      118.0000   623626    9.26%
Elapsed time = 1896.00 sec. (767108.86 ticks, tree = 1.20 MB, solutions = 1)
    264   120    infeasible            108.0000      118.0000   627194    9.26%
    269   117      118.0000   706      108.0000      118.0000   630998    9.26%
    272   116      118.0000   869      108.0000      118.0000   633342    9.26%
    280   120      118.0000   710      108.0000      118.0000   635621    9.26%
    289   127    infeasible            108.0000      118.0000   638464    9.26%
    294   128      117.6667   649      108.0000      118.0000   641302    9.26%
    301   129      114.0000   524      108.0000      118.0000   644715    9.26%
    310   128    infeasible            108.0000      118.0000   648789    9.26%
    321   131      118.0000   536      108.0000      118.0000   651726    9.26%
    333   131        cutoff            108.0000      118.0000   655997    9.26%
Elapsed time = 1915.77 sec. (777778.18 ticks, tree = 1.28 MB, solutions = 1)
    341   125    infeasible            108.0000      118.0000   660363    9.26%
    348   124      118.0000   669      108.0000      118.0000   663214    9.26%
    353   127    infeasible            108.0000      118.0000   666414    9.26%
    356   128      116.0000   678      108.0000      118.0000   669946    9.26%
    359   131      117.9880  1064      108.0000      118.0000   672868    9.26%
    364   130    infeasible            108.0000      118.0000   675644    9.26%
    373   131      118.0000   811      108.0000      118.0000   679498    9.26%
    377   135      117.9600   692      108.0000      118.0000   682513    9.26%
    385   133    infeasible            108.0000      118.0000   685768    9.26%
    393   139      116.0000   662      108.0000      118.0000   688783    9.26%
Elapsed time = 1936.60 sec. (788857.79 ticks, tree = 1.33 MB, solutions = 1)
    398   134    infeasible            108.0000      118.0000   692965    9.26%
    403   135      118.0000   835      108.0000      118.0000   698051    9.26%
    405   135      118.0000   832      108.0000      118.0000   701430    9.26%
    414   142      118.0000   599      108.0000      118.0000   703763    9.26%
    427   149      118.0000   535      108.0000      118.0000   706604    9.26%
    437   149    infeasible            108.0000      118.0000   709142    9.26%
    444   150      118.0000   532      108.0000      118.0000   711945    9.26%
    455   145    infeasible            108.0000      118.0000   715326    9.26%
    468   150    infeasible            108.0000      118.0000   719137    9.26%
    481   147    infeasible            108.0000      118.0000   723707    9.26%
Elapsed time = 1960.62 sec. (801535.47 ticks, tree = 1.40 MB, solutions = 1)
    500   156        cutoff            108.0000      118.0000   726774    9.26%
    512   152    infeasible            108.0000      118.0000   730861    9.26%
    525   155      118.0000   498      108.0000      118.0000   735791    9.26%
    540   164      117.9855   774      108.0000      118.0000   737877    9.26%
    550   164    infeasible            108.0000      118.0000   740905    9.26%
    559   165      117.6667   599      108.0000      118.0000   745017    9.26%
    567   165      114.0000   359      108.0000      118.0000   749039    9.26%
    578   158    infeasible            108.0000      118.0000   753666    9.26%
    586   154    infeasible            108.0000      118.0000   758283    9.26%
    592   152    infeasible            108.0000      118.0000   761156    9.26%
Elapsed time = 1979.42 sec. (812199.37 ticks, tree = 1.45 MB, solutions = 1)
    598   154      118.0000   578      108.0000      118.0000   764214    9.26%
    605   151    infeasible            108.0000      118.0000   769251    9.26%
    611   155      118.0000   752      108.0000      118.0000   771767    9.26%
    618   154      118.0000   566      108.0000      118.0000   774923    9.26%
    625   151    infeasible            108.0000      118.0000   778913    9.26%
    634   156      118.0000   612      108.0000      118.0000   782237    9.26%
    638   156      116.0000   612      108.0000      118.0000   786630    9.26%
    645   159      114.0000   542      108.0000      118.0000   789420    9.26%
    652   158      118.0000   583      108.0000      118.0000   792433    9.26%
    680   160      118.0000   732      108.0000      118.0000   804472    9.26%
Elapsed time = 2005.38 sec. (826135.31 ticks, tree = 1.50 MB, solutions = 1)
    711   173    infeasible            108.0000      118.0000   815939    9.26%
    734   176      118.0000   810      108.0000      118.0000   828241    9.26%
    770   182      118.0000   520      108.0000      118.0000   840005    9.26%
    801   181      118.0000   562      108.0000      118.0000   855140    9.26%
    823   177      118.0000   628      108.0000      118.0000   868128    9.26%
    858   183    infeasible            108.0000      118.0000   882123    9.26%
    890   189      118.0000   497      108.0000      118.0000   898993    9.26%
    920   197    infeasible            108.0000      118.0000   912593    9.26%
    954   207    infeasible            108.0000      118.0000   924003    9.26%
    979   206    infeasible            108.0000      118.0000   937109    9.26%
Elapsed time = 2078.34 sec. (865767.01 ticks, tree = 1.86 MB, solutions = 1)
   1011   212      117.9512   716      108.0000      118.0000   949221    9.26%
   1038   219      118.0000   484      108.0000      118.0000   962959    9.26%
   1064   219      118.0000   506      108.0000      118.0000   977226    9.26%
   1094   221      118.0000   424      108.0000      118.0000   989898    9.26%
   1116   215      116.0000   749      108.0000      118.0000  1001469    9.26%
   1142   213    infeasible            108.0000      118.0000  1014407    9.26%
   1164   211      117.6000   798      108.0000      118.0000  1027118    9.26%
   1186   211    infeasible            108.0000      118.0000  1038632    9.26%
   1209   210    infeasible            108.0000      118.0000  1054006    9.26%
   1235   216    infeasible            108.0000      118.0000  1066236    9.26%
Elapsed time = 2151.38 sec. (905210.02 ticks, tree = 1.95 MB, solutions = 1)
   1260   219      118.0000   546      108.0000      118.0000  1078124    9.26%
   1294   221      118.0000   741      108.0000      118.0000  1089606    9.26%
   1320   217    infeasible            108.0000      118.0000  1100838    9.26%
   1350   223      118.0000   533      108.0000      118.0000  1113265    9.26%
   1382   223    infeasible            108.0000      118.0000  1126612    9.26%
   1410   227    infeasible            108.0000      118.0000  1138646    9.26%
   1435   228      117.9286   929      108.0000      118.0000  1151777    9.26%
   1466   237      117.6000   664      108.0000      118.0000  1162451    9.26%
   1494   235      118.0000   541      108.0000      118.0000  1175837    9.26%
   1510   235    infeasible            108.0000      118.0000  1190916    9.26%
Elapsed time = 2223.76 sec. (944789.51 ticks, tree = 2.10 MB, solutions = 1)
   1544   231    infeasible            108.0000      118.0000  1203762    9.26%
   1561   234      118.0000   633      108.0000      118.0000  1215053    9.26%
   1586   233    infeasible            108.0000      118.0000  1226765    9.26%
   1608   245    infeasible            108.0000      118.0000  1238215    9.26%
   1626   235      118.0000   667      108.0000      118.0000  1253305    9.26%
   1640   237      113.0000   496      108.0000      118.0000  1268803    9.26%
   1670   247    infeasible            108.0000      118.0000  1281588    9.26%
   1705   258    infeasible            108.0000      118.0000  1294825    9.26%
   1738   259    infeasible            108.0000      118.0000  1308378    9.26%
   1772   261      118.0000   559      108.0000      118.0000  1321822    9.26%
Elapsed time = 2295.00 sec. (984268.32 ticks, tree = 2.30 MB, solutions = 1)
   1798   245    infeasible            108.0000      118.0000  1337317    9.26%
   1819   236      118.0000   667      108.0000      118.0000  1349261    9.26%
   1849   242    infeasible            108.0000      118.0000  1363555    9.26%
   1865   244    infeasible            108.0000      118.0000  1377651    9.26%
   1893   246    infeasible            108.0000      118.0000  1390059    9.26%
   1919   256      118.0000   864      108.0000      118.0000  1398472    9.26%
   1940   253      118.0000   562      108.0000      118.0000  1409159    9.26%
   1967   256    infeasible            108.0000      118.0000  1425525    9.26%
   1990   253    infeasible            108.0000      118.0000  1437431    9.26%
   2017   258    infeasible            108.0000      118.0000  1449326    9.26%
Elapsed time = 2365.55 sec. (1023442.60 ticks, tree = 2.29 MB, solutions = 1)
   2050   259    infeasible            108.0000      118.0000  1462709    9.26%
   2087   264    infeasible            108.0000      118.0000  1474711    9.26%
   2121   274      118.0000   547      108.0000      118.0000  1485007    9.26%
   2145   272    infeasible            108.0000      118.0000  1497682    9.26%
   2174   269    infeasible            108.0000      118.0000  1510937    9.26%
   2202   267    infeasible            108.0000      118.0000  1523948    9.26%
   2226   265    infeasible            108.0000      118.0000  1536551    9.26%
   2242   263    infeasible            108.0000      118.0000  1548367    9.26%
   2274   265      118.0000   578      108.0000      118.0000  1561178    9.26%
   2298   273      115.3333   642      108.0000      118.0000  1574482    9.26%
Elapsed time = 2437.54 sec. (1063093.28 ticks, tree = 2.39 MB, solutions = 1)
   2322   281    infeasible            108.0000      118.0000  1585718    9.26%

Performing restart 1

Repeating presolve.
Tried aggregator 1 time.
MIP Presolve eliminated 0 rows and 1 columns.
MIP Presolve modified 2 coefficients.
Reduced MIP has 28808 rows, 5012 columns, and 143503 nonzeros.
Reduced MIP has 5012 binaries, 0 generals, 0 SOSs, and 0 indicators.
Presolve time = 0.36 sec. (222.34 ticks)
Tried aggregator 1 time.
MIP Presolve eliminated 1 rows and 1 columns.
Reduced MIP has 28807 rows, 5011 columns, and 143500 nonzeros.
Reduced MIP has 5011 binaries, 0 generals, 0 SOSs, and 0 indicators.
Presolve time = 0.38 sec. (236.53 ticks)
Represolve time = 0.91 sec. (543.12 ticks)
   2328     0      118.0000   894      108.0000    Cliques: 3  1595179    9.26%
   2328     0      118.0000  1306      108.0000     Cuts: 589  1632056    9.26%
   2328     2      118.0000   803      108.0000      118.0000  1632056    9.26%
   2329     3      118.0000  1296      108.0000      118.0000  1670230    9.26%
   2331     5      118.0000  1282      108.0000      118.0000  1699968    9.26%
   2334     8      118.0000  1242      108.0000      118.0000  1723833    9.26%
   2336    10      118.0000  1200      108.0000      118.0000  1747351    9.26%
   2343    17      118.0000  1276      108.0000      118.0000  1774829    9.26%
   2372    46      118.0000   745      108.0000      118.0000  1781069    9.26%
   2420    94      118.0000   785      108.0000      118.0000  1787860    9.26%
   2428   102      118.0000   738      108.0000      118.0000  1788615    9.26%
Elapsed time = 3177.34 sec. (1357898.20 ticks, tree = 0.61 MB, solutions = 1)
   2461   129      118.0000   779      108.0000      118.0000  1792762    9.26%
   2480   148      118.0000   838      108.0000      118.0000  1800100    9.26%
   2522   178      118.0000   684      108.0000      118.0000  1808318    9.26%
   2528   184      118.0000   696      108.0000      118.0000  1809072    9.26%
   2582   234      118.0000   496      108.0000      118.0000  1816375    9.26%
   2637   265      118.0000   598      108.0000      118.0000  1825964    9.26%
*  2650   254      integral     0      116.0000      118.0000  1828329    1.72%
   2700   256      118.0000   296      116.0000      118.0000  1833534    1.72%
   2758   258      118.0000   411      116.0000      118.0000  1843860    1.72%
   2825   265    infeasible            116.0000      118.0000  1853709    1.72%
*  2877     0      integral     0      118.0000      118.0000  1861377    0.00%

GUB cover cuts applied:  60
Clique cuts applied:  15
Cover cuts applied:  940
Mixed integer rounding cuts applied:  24
Zero-half cuts applied:  3
Gomory fractional cuts applied:  186

Root node processing (before b&c):
  Real time             = 1160.14 sec. (490542.63 ticks)
Sequential b&c:
  Real time             = 2147.46 sec. (945539.03 ticks)
                          ------------
Total (root+branch&cut) = 3307.60 sec. (1436081.66 ticks)
Solution is feasible.

---------------------
@@@ MIP_optimal
>>> Benchmark mc2024_track1_033.cnf k 2 OPT 118 TimeCost 3328.6270141601562 TimeSolve 3319.284998893738 TimeRead 0.11578726768493652 TimeTrans 9.22622799873352
